
Gurobi 11.0.3 (linux64) logging started Thu Nov 21 19:35:07 2024

Set parameter LogFile to value "/home/yihong/Coding/OR_SUC/SUC_results_bigM100000_thread4/case24_ieee_rts_theta0.1_epsilon0.025_gurobi_seed20000_num_gen100_N_WDR100_load_scaling_factor1_exact_T8quadra_cost.txt"
Set parameter TimeLimit to value 3600
Gurobi Optimizer version 11.0.3 build v11.0.3rc0 (linux64 - "Ubuntu 20.04.6 LTS")

CPU model: AMD EPYC 7532 32-Core Processor, instruction set [SSE2|AVX|AVX2]
Thread count: 64 physical cores, 128 logical processors, using up to 4 threads

Optimize a model with 17083 rows, 10121 columns and 236714 nonzeros
Model fingerprint: 0x7fe76e0e
Model has 800 quadratic constraints
Variable types: 9221 continuous, 900 integer (900 binary)
Coefficient statistics:
  Matrix range     [3e-04, 1e+05]
  QMatrix range    [2e-03, 8e-03]
  QLMatrix range   [2e-02, 6e+01]
  Objective range  [1e+00, 1e+00]
  Bounds range     [1e+00, 1e+00]
  RHS range        [1e+00, 1e+05]
Presolve removed 13950 rows and 4556 columns
Presolve time: 0.07s
Presolved: 3133 rows, 5565 columns, 20857 nonzeros
Presolved model has 800 quadratic constraint(s)
Variable types: 4735 continuous, 830 integer (830 binary)

Root relaxation: objective 1.219040e+04, 2399 iterations, 0.04 seconds (0.04 work units)

    Nodes    |    Current Node    |     Objective Bounds      |     Work
 Expl Unexpl |  Obj  Depth IntInf | Incumbent    BestBd   Gap | It/Node Time

     0     0 12190.3953    0    3          - 12190.3953      -     -    0s
     0     0 110891.661    0  277          - 110891.661      -     -    0s
     0     0 212301.771    0  132          - 212301.771      -     -    0s
     0     0 212320.178    0  135          - 212320.178      -     -    0s
     0     0 212541.615    0   57          - 212541.615      -     -    0s
     0     0 212542.794    0   58          - 212542.794      -     -    0s
     0     0 212542.794    0   57          - 212542.794      -     -    0s
     0     0 212542.794    0   57          - 212542.794      -     -    0s
     0     2 212542.794    0   57          - 212542.794      -     -    0s
H  298   394                    213183.29901 212550.886  0.30%  12.6    1s
*  298   394              79    213183.29901 212550.886  0.30%  12.8    1s
   780   649 212686.713   38   44 213183.299 212555.002  0.29%  30.0    5s
H 1649   716                    212699.67353 212562.595  0.06%  29.3    6s
* 1649   716              64    212699.67353 212562.595  0.06%  29.3    6s

Cutting planes:
  Gomory: 13
  Implied bound: 54
  MIR: 40
  Flow cover: 55
  RLT: 2

Explored 1660 nodes (55184 simplex iterations) in 6.81 seconds (6.40 work units)
Thread count was 4 (of 128 available processors)

Solution count 3: 212700 212700 213183 

Optimal solution found (tolerance 1.00e-03)
Warning: max constraint violation (1.2865e-09) exceeds tolerance
Best objective 2.126996721931e+05, best bound 2.125625945474e+05, gap 0.0644%
